案例练习/Chisel/gcd_bmc/gcd/model/design_smt2.smt2
; SMT-LIBv2 description generated by Yosys 0.35+24 (git sha1 7eea04779, aarch64-apple-darwin20.2-clang 10.0.0-4ubuntu1 -fPIC -Os)
; yosys-smt2-module ResetCounter
(declare-sort |ResetCounter_s| 0)
(declare-fun |ResetCounter_is| (|ResetCounter_s|) Bool)
; yosys-smt2-witness {"offset": 0, "path": ["\\count"], "smtname": 0, "smtoffset": 0, "type": "reg", "width": 32}
(declare-fun |ResetCounter#0| (|ResetCounter_s|) (_ BitVec 32)) ; \count
; yosys-smt2-output timeSinceReset 32
; yosys-smt2-wire timeSinceReset 32
(define-fun |ResetCounter_n timeSinceReset| ((state |ResetCounter_s|)) (_ BitVec 32) (|ResetCounter#0| state))
(declare-fun |ResetCounter#1| (|ResetCounter_s|) Bool) ; \reset
; yosys-smt2-input reset 1
; yosys-smt2-wire reset 1
; yosys-smt2-witness {"offset": 0, "path": ["\\reset"], "smtname": "reset", "smtoffset": 0, "type": "input", "width": 1}
(define-fun |ResetCounter_n reset| ((state |ResetCounter_s|)) Bool (|ResetCounter#1| state))
; yosys-smt2-witness {"offset": 0, "path": ["\\flag"], "smtname": 2, "smtoffset": 0, "type": "reg", "width": 1}
(declare-fun |ResetCounter#2| (|ResetCounter_s|) (_ BitVec 1)) ; \flag
; yosys-smt2-output notChaos 1
; yosys-smt2-wire notChaos 1
(define-fun |ResetCounter_n notChaos| ((state |ResetCounter_s|)) Bool (= ((_ extract 0 0) (|ResetCounter#2| state)) #b1))
; yosys-smt2-register flag 1
; yosys-smt2-wire flag 1
(define-fun |ResetCounter_n flag| ((state |ResetCounter_s|)) Bool (= ((_ extract 0 0) (|ResetCounter#2| state)) #b1))
; yosys-smt2-register count 32
; yosys-smt2-wire count 32
(define-fun |ResetCounter_n count| ((state |ResetCounter_s|)) (_ BitVec 32) (|ResetCounter#0| state))
(declare-fun |ResetCounter#3| (|ResetCounter_s|) Bool) ; \clk
; yosys-smt2-input clk 1
; yosys-smt2-wire clk 1
; yosys-smt2-clock clk posedge
; yosys-smt2-witness {"offset": 0, "path": ["\\clk"], "smtname": "clk", "smtoffset": 0, "type": "posedge", "width": 1}
; yosys-smt2-witness {"offset": 0, "path": ["\\clk"], "smtname": "clk", "smtoffset": 0, "type": "input", "width": 1}
(define-fun |ResetCounter_n clk| ((state |ResetCounter_s|)) Bool (|ResetCounter#3| state))
(define-fun |ResetCounter#4| ((state |ResetCounter_s|)) (_ BitVec 1) (bvnot (ite (|ResetCounter#3| state) #b1 #b0))) ; $auto$rtlil.cc:2461:Not$171
; yosys-smt2-assume 0 $auto$formalff.cc:758:execute$172
(define-fun |ResetCounter_u 0| ((state |ResetCounter_s|)) Bool (or (= ((_ extract 0 0) (|ResetCounter#4| state)) #b1) (not true))) ; $auto$formalff.cc:758:execute$172
(define-fun |ResetCounter#5| ((state |ResetCounter_s|)) (_ BitVec 1) (ite (|ResetCounter#1| state) #b1 (|ResetCounter#2| state))) ; $0\flag[0:0]
(define-fun |ResetCounter#6| ((state |ResetCounter_s|)) (_ BitVec 32) (bvadd (|ResetCounter#0| state) #b00000000000000000000000000000001)) ; $add$ResetCounter.sv:24$74_Y
(define-fun |ResetCounter#7| ((state |ResetCounter_s|)) (_ BitVec 32) (ite (= ((_ extract 0 0) (|ResetCounter#2| state)) #b1) (|ResetCounter#6| state) (|ResetCounter#0| state))) ; $procmux$79_Y
(define-fun |ResetCounter#8| ((state |ResetCounter_s|)) (_ BitVec 32) (ite (|ResetCounter#1| state) #b00000000000000000000000000000000 (|ResetCounter#7| state))) ; $0\count[31:0]
(define-fun |ResetCounter_a| ((state |ResetCounter_s|)) Bool true)
(define-fun |ResetCounter_u| ((state |ResetCounter_s|)) Bool 
  (|ResetCounter_u 0| state)
)
(define-fun |ResetCounter_i| ((state |ResetCounter_s|)) Bool (and
  (= (= ((_ extract 0 0) (|ResetCounter#2| state)) #b1) false) ; flag
  (= (|ResetCounter#0| state) #b00000000000000000000000000000000) ; count
))
(define-fun |ResetCounter_h| ((state |ResetCounter_s|)) Bool true)
(define-fun |ResetCounter_t| ((state |ResetCounter_s|) (next_state |ResetCounter_s|)) Bool (and
  (= (|ResetCounter#5| state) (|ResetCounter#2| next_state)) ; $procdff$121 \flag
  (= (|ResetCounter#8| state) (|ResetCounter#0| next_state)) ; $procdff$120 \count
)) ; end of module ResetCounter
; yosys-smt2-module gcd
(declare-sort |gcd_s| 0)
(declare-fun |gcd_is| (|gcd_s|) Bool)
; yosys-smt2-anyinit gcd#0 8 gcd.sv:58.3-111.6
; yosys-smt2-witness {"offset": 0, "path": ["\\y"], "smtname": 0, "smtoffset": 0, "type": "init", "width": 8}
(declare-fun |gcd#0| (|gcd_s|) (_ BitVec 8)) ; \y
; yosys-smt2-anyinit gcd#1 3 gcd.sv:58.3-111.6
; yosys-smt2-witness {"offset": 0, "path": ["\\lsb"], "smtname": 1, "smtoffset": 0, "type": "init", "width": 3}
(declare-fun |gcd#1| (|gcd_s|) (_ BitVec 3)) ; \lsb
(define-fun |gcd#2| ((state |gcd_s|)) (_ BitVec 1) ((_ extract 0 0) (bvlshr (|gcd#0| state) (concat #b00000 (|gcd#1| state))))) ; \y_lsb
; yosys-smt2-wire y_lsb 1
(define-fun |gcd_n y_lsb| ((state |gcd_s|)) Bool (= ((_ extract 0 0) (|gcd#2| state)) #b1))
; yosys-smt2-register y 8
; yosys-smt2-wire y 8
(define-fun |gcd_n y| ((state |gcd_s|)) (_ BitVec 8) (|gcd#0| state))
; yosys-smt2-anyinit gcd#3 8 gcd.sv:58.3-111.6
; yosys-smt2-witness {"offset": 0, "path": ["\\x"], "smtname": 3, "smtoffset": 0, "type": "init", "width": 8}
(declare-fun |gcd#3| (|gcd_s|) (_ BitVec 8)) ; \x
(define-fun |gcd#4| ((state |gcd_s|)) (_ BitVec 1) ((_ extract 0 0) (bvlshr (|gcd#3| state) (concat #b00000 (|gcd#1| state))))) ; \x_lsb
; yosys-smt2-wire x_lsb 1
(define-fun |gcd_n x_lsb| ((state |gcd_s|)) Bool (= ((_ extract 0 0) (|gcd#4| state)) #b1))
; yosys-smt2-register x 8
; yosys-smt2-wire x 8
(define-fun |gcd_n x| ((state |gcd_s|)) (_ BitVec 8) (|gcd#3| state))
; yosys-smt2-anyinit gcd#5 1 gcd.sv:58.3-111.6
; yosys-smt2-witness {"offset": 0, "path": ["\\start"], "smtname": 5, "smtoffset": 0, "type": "init", "width": 1}
(declare-fun |gcd#5| (|gcd_s|) (_ BitVec 1)) ; \start
; yosys-smt2-register start 1
; yosys-smt2-wire start 1
(define-fun |gcd_n start| ((state |gcd_s|)) Bool (= ((_ extract 0 0) (|gcd#5| state)) #b1))
; yosys-smt2-cell ResetCounter resetCounter
; yosys-smt2-witness {"path": ["\\resetCounter"], "smtname": "resetCounter", "type": "cell"}
(declare-fun |gcd#6| (|gcd_s|) (_ BitVec 32)) ; \resetCounter_timeSinceReset
(declare-fun |gcd#7| (|gcd_s|) Bool) ; \resetCounter_notChaos
(declare-fun |gcd_h resetCounter| (|gcd_s|) |ResetCounter_s|)
; yosys-smt2-wire resetCounter_timeSinceReset 32
(define-fun |gcd_n resetCounter_timeSinceReset| ((state |gcd_s|)) (_ BitVec 32) (|gcd#6| state))
(declare-fun |gcd#8| (|gcd_s|) Bool) ; \reset
; yosys-smt2-wire resetCounter_reset 1
(define-fun |gcd_n resetCounter_reset| ((state |gcd_s|)) Bool (|gcd#8| state))
; yosys-smt2-wire resetCounter_notChaos 1
(define-fun |gcd_n resetCounter_notChaos| ((state |gcd_s|)) Bool (|gcd#7| state))
(declare-fun |gcd#9| (|gcd_s|) Bool) ; \clock
; yosys-smt2-wire resetCounter_clk 1
; yosys-smt2-clock resetCounter_clk posedge
(define-fun |gcd_n resetCounter_clk| ((state |gcd_s|)) Bool (|gcd#9| state))
; yosys-smt2-input reset 1
; yosys-smt2-wire reset 1
; yosys-smt2-witness {"offset": 0, "path": ["\\reset"], "smtname": "reset", "smtoffset": 0, "type": "input", "width": 1}
(define-fun |gcd_n reset| ((state |gcd_s|)) Bool (|gcd#8| state))
; yosys-smt2-register lsb 3
; yosys-smt2-wire lsb 3
(define-fun |gcd_n lsb| ((state |gcd_s|)) (_ BitVec 3) (|gcd#1| state))
(define-fun |gcd#10| ((state |gcd_s|)) Bool (bvult (|gcd#3| state) (|gcd#0| state))) ; \_diff_T
(define-fun |gcd#11| ((state |gcd_s|)) (_ BitVec 8) (ite (|gcd#10| state) (|gcd#3| state) (|gcd#0| state))) ; \io_o
; yosys-smt2-output io_o 8
; yosys-smt2-wire io_o 8
(define-fun |gcd_n io_o| ((state |gcd_s|)) (_ BitVec 8) (|gcd#11| state))
(define-fun |gcd#12| ((state |gcd_s|)) Bool (= (|gcd#3| state) (|gcd#0| state))) ; \_io_done_T
(define-fun |gcd#13| ((state |gcd_s|)) Bool (not (or  (= ((_ extract 0 0) (|gcd#3| state)) #b1) (= ((_ extract 1 1) (|gcd#3| state)) #b1) (= ((_ extract 2 2) (|gcd#3| state)) #b1) (= ((_ extract 3 3) (|gcd#3| state)) #b1) (= ((_ extract 4 4) (|gcd#3| state)) #b1) (= ((_ extract 5 5) (|gcd#3| state)) #b1) (= ((_ extract 6 6) (|gcd#3| state)) #b1) (= ((_ extract 7 7) (|gcd#3| state)) #b1)))) ; \_io_done_T_1
(define-fun |gcd#14| ((state |gcd_s|)) (_ BitVec 1) (bvor (ite (|gcd#12| state) #b1 #b0) (ite (|gcd#13| state) #b1 #b0))) ; $or$gcd.sv:55$33_Y
(define-fun |gcd#15| ((state |gcd_s|)) Bool (not (or  (= ((_ extract 0 0) (|gcd#0| state)) #b1) (= ((_ extract 1 1) (|gcd#0| state)) #b1) (= ((_ extract 2 2) (|gcd#0| state)) #b1) (= ((_ extract 3 3) (|gcd#0| state)) #b1) (= ((_ extract 4 4) (|gcd#0| state)) #b1) (= ((_ extract 5 5) (|gcd#0| state)) #b1) (= ((_ extract 6 6) (|gcd#0| state)) #b1) (= ((_ extract 7 7) (|gcd#0| state)) #b1)))) ; \_io_done_T_3
(define-fun |gcd#16| ((state |gcd_s|)) (_ BitVec 1) (bvor (|gcd#14| state) (ite (|gcd#15| state) #b1 #b0))) ; \io_done
; yosys-smt2-output io_done 1
; yosys-smt2-wire io_done 1
(define-fun |gcd_n io_done| ((state |gcd_s|)) Bool (= ((_ extract 0 0) (|gcd#16| state)) #b1))
(declare-fun |gcd#17| (|gcd_s|) (_ BitVec 8)) ; \io_b
; yosys-smt2-input io_b 8
; yosys-smt2-wire io_b 8
; yosys-smt2-witness {"offset": 0, "path": ["\\io_b"], "smtname": "io_b", "smtoffset": 0, "type": "input", "width": 8}
(define-fun |gcd_n io_b| ((state |gcd_s|)) (_ BitVec 8) (|gcd#17| state))
(declare-fun |gcd#18| (|gcd_s|) (_ BitVec 8)) ; \io_a
; yosys-smt2-input io_a 8
; yosys-smt2-wire io_a 8
; yosys-smt2-witness {"offset": 0, "path": ["\\io_a"], "smtname": "io_a", "smtoffset": 0, "type": "input", "width": 8}
(define-fun |gcd_n io_a| ((state |gcd_s|)) (_ BitVec 8) (|gcd#18| state))
(define-fun |gcd#19| ((state |gcd_s|)) (_ BitVec 8) (bvsub (|gcd#3| state) (|gcd#0| state))) ; \_diff_T_4
(define-fun |gcd#20| ((state |gcd_s|)) (_ BitVec 8) (bvsub (|gcd#0| state) (|gcd#3| state))) ; \_diff_T_2
(define-fun |gcd#21| ((state |gcd_s|)) (_ BitVec 8) (ite (|gcd#10| state) (|gcd#20| state) (|gcd#19| state))) ; \diff
; yosys-smt2-wire diff 8
(define-fun |gcd_n diff| ((state |gcd_s|)) (_ BitVec 8) (|gcd#21| state))
; yosys-smt2-input clock 1
; yosys-smt2-wire clock 1
; yosys-smt2-clock clock posedge
; yosys-smt2-witness {"offset": 0, "path": ["\\clock"], "smtname": "clock", "smtoffset": 0, "type": "posedge", "width": 1}
; yosys-smt2-witness {"offset": 0, "path": ["\\clock"], "smtname": "clock", "smtoffset": 0, "type": "input", "width": 1}
(define-fun |gcd_n clock| ((state |gcd_s|)) Bool (|gcd#9| state))
(declare-fun |gcd#22| (|gcd_s|) (_ BitVec 7)) ; \_y_lsb_T [7:1]
; yosys-smt2-wire _y_lsb_T 8
(define-fun |gcd_n _y_lsb_T| ((state |gcd_s|)) (_ BitVec 8) (concat (|gcd#22| state) (|gcd#2| state)))
; yosys-smt2-wire _y_T_1 7
(define-fun |gcd_n _y_T_1| ((state |gcd_s|)) (_ BitVec 7) ((_ extract 7 1) (|gcd#21| state)))
; yosys-smt2-wire _y_T 7
(define-fun |gcd_n _y_T| ((state |gcd_s|)) (_ BitVec 7) ((_ extract 7 1) (|gcd#0| state)))
(declare-fun |gcd#23| (|gcd_s|) (_ BitVec 7)) ; \_x_lsb_T [7:1]
; yosys-smt2-wire _x_lsb_T 8
(define-fun |gcd_n _x_lsb_T| ((state |gcd_s|)) (_ BitVec 8) (concat (|gcd#23| state) (|gcd#4| state)))
; yosys-smt2-wire _x_T 7
(define-fun |gcd_n _x_T| ((state |gcd_s|)) (_ BitVec 7) ((_ extract 7 1) (|gcd#3| state)))
; yosys-smt2-anyseq gcd#24 1 $auto$setundef.cc:533:execute$165
; yosys-smt2-witness {"offset": 0, "path": ["\\_witness_", "\\anyseq_auto_setundef_cc_533_execute_165"], "smtname": 24, "smtoffset": 0, "type": "seq", "width": 1}
(declare-fun |gcd#24| (|gcd_s|) (_ BitVec 1)) ; \_witness_.anyseq_auto_setundef_cc_533_execute_165
; yosys-smt2-wire _witness_.anyseq_auto_setundef_cc_533_execute_165 1
(define-fun |gcd_n _witness_.anyseq_auto_setundef_cc_533_execute_165| ((state |gcd_s|)) Bool (= ((_ extract 0 0) (|gcd#24| state)) #b1))
; yosys-smt2-anyseq gcd#25 1 $auto$setundef.cc:533:execute$163
; yosys-smt2-witness {"offset": 0, "path": ["\\_witness_", "\\anyseq_auto_setundef_cc_533_execute_163"], "smtname": 25, "smtoffset": 0, "type": "seq", "width": 1}
(declare-fun |gcd#25| (|gcd_s|) (_ BitVec 1)) ; \_witness_.anyseq_auto_setundef_cc_533_execute_163
; yosys-smt2-wire _witness_.anyseq_auto_setundef_cc_533_execute_163 1
(define-fun |gcd_n _witness_.anyseq_auto_setundef_cc_533_execute_163| ((state |gcd_s|)) Bool (= ((_ extract 0 0) (|gcd#25| state)) #b1))
; yosys-smt2-anyinit gcd#26 1 gcd.sv:163.3-172.6
; yosys-smt2-witness {"offset": 0, "path": ["\\_witness_", "\\anyinit_procdff_124"], "smtname": 26, "smtoffset": 0, "type": "init", "width": 1}
(declare-fun |gcd#26| (|gcd_s|) (_ BitVec 1)) ; \_witness_.anyinit_procdff_124
; yosys-smt2-register _witness_.anyinit_procdff_124 1
; yosys-smt2-wire _witness_.anyinit_procdff_124 1
(define-fun |gcd_n _witness_.anyinit_procdff_124| ((state |gcd_s|)) Bool (= ((_ extract 0 0) (|gcd#26| state)) #b1))
; yosys-smt2-anyinit gcd#27 1 gcd.sv:163.3-172.6
; yosys-smt2-witness {"offset": 0, "path": ["\\_witness_", "\\anyinit_procdff_122"], "smtname": 27, "smtoffset": 0, "type": "init", "width": 1}
(declare-fun |gcd#27| (|gcd_s|) (_ BitVec 1)) ; \_witness_.anyinit_procdff_122
; yosys-smt2-register _witness_.anyinit_procdff_122 1
; yosys-smt2-wire _witness_.anyinit_procdff_122 1
(define-fun |gcd_n _witness_.anyinit_procdff_122| ((state |gcd_s|)) Bool (= ((_ extract 0 0) (|gcd#27| state)) #b1))
(define-fun |gcd#28| ((state |gcd_s|)) (_ BitVec 3) (bvadd (|gcd#1| state) #b001)) ; \_lsb_T_1
; yosys-smt2-wire _lsb_T_1 3
(define-fun |gcd_n _lsb_T_1| ((state |gcd_s|)) (_ BitVec 3) (|gcd#28| state))
; yosys-smt2-wire _io_done_T_3 1
(define-fun |gcd_n _io_done_T_3| ((state |gcd_s|)) Bool (|gcd#15| state))
; yosys-smt2-wire _io_done_T_1 1
(define-fun |gcd_n _io_done_T_1| ((state |gcd_s|)) Bool (|gcd#13| state))
; yosys-smt2-wire _io_done_T 1
(define-fun |gcd_n _io_done_T| ((state |gcd_s|)) Bool (|gcd#12| state))
; yosys-smt2-wire _diff_T_4 8
(define-fun |gcd_n _diff_T_4| ((state |gcd_s|)) (_ BitVec 8) (|gcd#19| state))
; yosys-smt2-wire _diff_T_2 8
(define-fun |gcd_n _diff_T_2| ((state |gcd_s|)) (_ BitVec 8) (|gcd#20| state))
; yosys-smt2-wire _diff_T 1
(define-fun |gcd_n _diff_T| ((state |gcd_s|)) Bool (|gcd#10| state))
; yosys-smt2-wire _T_6 2
(define-fun |gcd_n _T_6| ((state |gcd_s|)) (_ BitVec 2) (concat (|gcd#4| state) (|gcd#2| state)))
(define-fun |gcd#29| ((state |gcd_s|)) (_ BitVec 1) (bvnot (ite (|gcd#8| state) #b1 #b0))) ; \_T_18
; yosys-smt2-wire _T_18 1
(define-fun |gcd_n _T_18| ((state |gcd_s|)) Bool (= ((_ extract 0 0) (|gcd#29| state)) #b1))
(define-fun |gcd#30| ((state |gcd_s|)) Bool (= (|gcd#18| state) #b00000110)) ; $eq$gcd.sv:46$25_Y
(define-fun |gcd#31| ((state |gcd_s|)) Bool (= (|gcd#17| state) #b00000100)) ; $eq$gcd.sv:46$26_Y
(define-fun |gcd#32| ((state |gcd_s|)) (_ BitVec 1) (bvand (ite (|gcd#30| state) #b1 #b0) (ite (|gcd#31| state) #b1 #b0))) ; $and$gcd.sv:46$27_Y
(define-fun |gcd#33| ((state |gcd_s|)) (_ BitVec 1) (bvand (|gcd#32| state) (|gcd#16| state))) ; \_T_15
; yosys-smt2-wire _T_15 1
(define-fun |gcd_n _T_15| ((state |gcd_s|)) Bool (= ((_ extract 0 0) (|gcd#33| state)) #b1))
(define-fun |gcd#34| ((state |gcd_s|)) (_ BitVec 8) (ite (|gcd#10| state) (|gcd#3| state) (concat #b0 ((_ extract 7 1) (|gcd#21| state))))) ; \_GEN_1
(define-fun |gcd#35| ((state |gcd_s|)) Bool (= #b11 (concat (|gcd#4| state) (|gcd#2| state)))) ; $eq$gcd.sv:41$16_Y
(define-fun |gcd#36| ((state |gcd_s|)) (_ BitVec 8) (ite (|gcd#35| state) (|gcd#34| state) (|gcd#3| state))) ; \_GEN_3
(define-fun |gcd#37| ((state |gcd_s|)) Bool (= #b10 (concat (|gcd#4| state) (|gcd#2| state)))) ; $eq$gcd.sv:43$20_Y
(define-fun |gcd#38| ((state |gcd_s|)) (_ BitVec 8) (ite (|gcd#37| state) (|gcd#3| state) (|gcd#36| state))) ; \_GEN_5
; yosys-smt2-wire _GEN_5 8
(define-fun |gcd_n _GEN_5| ((state |gcd_s|)) (_ BitVec 8) (|gcd#38| state))
(define-fun |gcd#39| ((state |gcd_s|)) (_ BitVec 8) (ite (|gcd#10| state) (concat #b0 ((_ extract 7 1) (|gcd#21| state))) (|gcd#0| state))) ; \_GEN_0
(define-fun |gcd#40| ((state |gcd_s|)) (_ BitVec 8) (ite (|gcd#35| state) (|gcd#39| state) (|gcd#0| state))) ; \_GEN_2
(define-fun |gcd#41| ((state |gcd_s|)) (_ BitVec 8) (ite (|gcd#37| state) (concat #b0 ((_ extract 7 1) (|gcd#0| state))) (|gcd#40| state))) ; \_GEN_4
; yosys-smt2-wire _GEN_4 8
(define-fun |gcd_n _GEN_4| ((state |gcd_s|)) (_ BitVec 8) (|gcd#41| state))
; yosys-smt2-wire _GEN_3 8
(define-fun |gcd_n _GEN_3| ((state |gcd_s|)) (_ BitVec 8) (|gcd#36| state))
; yosys-smt2-wire _GEN_2 8
(define-fun |gcd_n _GEN_2| ((state |gcd_s|)) (_ BitVec 8) (|gcd#40| state))
; yosys-smt2-wire _GEN_16 1
(define-fun |gcd_n _GEN_16| ((state |gcd_s|)) Bool false)
; yosys-smt2-wire _GEN_1 8
(define-fun |gcd_n _GEN_1| ((state |gcd_s|)) (_ BitVec 8) (|gcd#34| state))
; yosys-smt2-wire _GEN_0 8
(define-fun |gcd_n _GEN_0| ((state |gcd_s|)) (_ BitVec 8) (|gcd#39| state))
; yosys-smt2-witness {"offset": 0, "path": ["$formal$gcd.sv:169$2_EN"], "smtname": 42, "smtoffset": 0, "type": "reg", "width": 1}
(declare-fun |gcd#42| (|gcd_s|) (_ BitVec 1)) ; $formal$gcd.sv:169$2_EN
; yosys-smt2-register $formal$gcd.sv:169$2_EN 1
(define-fun |gcd_n $formal$gcd.sv:169$2_EN| ((state |gcd_s|)) Bool (= ((_ extract 0 0) (|gcd#42| state)) #b1))
; yosys-smt2-witness {"offset": 0, "path": ["$formal$gcd.sv:165$1_EN"], "smtname": 43, "smtoffset": 0, "type": "reg", "width": 1}
(declare-fun |gcd#43| (|gcd_s|) (_ BitVec 1)) ; $formal$gcd.sv:165$1_EN
; yosys-smt2-register $formal$gcd.sv:165$1_EN 1
(define-fun |gcd_n $formal$gcd.sv:165$1_EN| ((state |gcd_s|)) Bool (= ((_ extract 0 0) (|gcd#43| state)) #b1))
(define-fun |gcd#44| ((state |gcd_s|)) (_ BitVec 1) (bvnot (ite (|gcd#9| state) #b1 #b0))) ; $auto$rtlil.cc:2461:Not$168
; yosys-smt2-assume 0 $auto$formalff.cc:758:execute$169
(define-fun |gcd_u 0| ((state |gcd_s|)) Bool (or (= ((_ extract 0 0) (|gcd#44| state)) #b1) (not true))) ; $auto$formalff.cc:758:execute$169
; yosys-smt2-assert 0 $assert$gcd.sv:169$68 gcd.sv:169.55-170.22
(define-fun |gcd_a 0| ((state |gcd_s|)) Bool (or (= ((_ extract 0 0) (|gcd#26| state)) #b1) (not (= ((_ extract 0 0) (|gcd#42| state)) #b1)))) ; $assert$gcd.sv:169$68
; yosys-smt2-assert 1 $assert$gcd.sv:165$67 gcd.sv:165.54-166.28
(define-fun |gcd_a 1| ((state |gcd_s|)) Bool (or (= ((_ extract 0 0) (|gcd#27| state)) #b1) (not (= ((_ extract 0 0) (|gcd#43| state)) #b1)))) ; $assert$gcd.sv:165$67
(define-fun |gcd#45| ((state |gcd_s|)) (_ BitVec 1) (bvand (|gcd#33| state) (ite (|gcd#7| state) #b1 #b0))) ; $and$gcd.sv:165$61_Y
(define-fun |gcd#46| ((state |gcd_s|)) (_ BitVec 1) (bvand (|gcd#45| state) (|gcd#29| state))) ; $and$gcd.sv:165$63_Y
(define-fun |gcd#47| ((state |gcd_s|)) (_ BitVec 1) (ite (= ((_ extract 0 0) (|gcd#46| state)) #b1) #b1 #b0)) ; $0$formal$gcd.sv:165$1_EN[0:0]$58
(define-fun |gcd#48| ((state |gcd_s|)) (_ BitVec 1) (bvand (|gcd#16| state) (ite (|gcd#7| state) #b1 #b0))) ; $and$gcd.sv:169$65_Y
(define-fun |gcd#49| ((state |gcd_s|)) (_ BitVec 1) (bvand (|gcd#48| state) (|gcd#29| state))) ; $and$gcd.sv:169$66_Y
(define-fun |gcd#50| ((state |gcd_s|)) (_ BitVec 1) (ite (= ((_ extract 0 0) (|gcd#49| state)) #b1) #b1 #b0)) ; $0$formal$gcd.sv:169$2_EN[0:0]$60
(define-fun |gcd#51| ((state |gcd_s|)) Bool (= (|gcd#11| state) #b00011000)) ; $eq$gcd.sv:166$64_Y
(define-fun |gcd#52| ((state |gcd_s|)) (_ BitVec 1) (ite (= ((_ extract 0 0) (|gcd#46| state)) #b1) (ite (|gcd#51| state) #b1 #b0) (|gcd#25| state))) ; $0$formal$gcd.sv:165$1_CHECK[0:0]$57
(define-fun |gcd#53| ((state |gcd_s|)) (_ BitVec 1) (ite (= ((_ extract 0 0) (|gcd#49| state)) #b1) (|gcd#16| state) (|gcd#24| state))) ; $0$formal$gcd.sv:169$2_CHECK[0:0]$59
(define-fun |gcd#54| ((state |gcd_s|)) Bool (= #b01 (concat (|gcd#4| state) (|gcd#2| state)))) ; $eq$gcd.sv:72$47_Y
(define-fun |gcd#55| ((state |gcd_s|)) (_ BitVec 8) (ite (|gcd#54| state) (concat #b0 ((_ extract 7 1) (|gcd#3| state))) (|gcd#38| state))) ; $procmux$102_Y
(define-fun |gcd#56| ((state |gcd_s|)) Bool (not (or  (= ((_ extract 0 0) (|gcd#2| state)) #b1) (= ((_ extract 0 0) (|gcd#4| state)) #b1)))) ; $eq$gcd.sv:63$41_Y
(define-fun |gcd#57| ((state |gcd_s|)) (_ BitVec 8) (ite (|gcd#56| state) (|gcd#3| state) (|gcd#55| state))) ; $procmux$104_Y
(define-fun |gcd#58| ((state |gcd_s|)) (_ BitVec 1) (bvnot (ite (|gcd#12| state) #b1 #b0))) ; $not$gcd.sv:62$38_Y
(define-fun |gcd#59| ((state |gcd_s|)) (_ BitVec 1) (bvor (|gcd#58| state) (ite (|gcd#13| state) #b1 #b0))) ; $or$gcd.sv:62$39_Y
(define-fun |gcd#60| ((state |gcd_s|)) (_ BitVec 1) (bvor (|gcd#59| state) (ite (|gcd#15| state) #b1 #b0))) ; $or$gcd.sv:62$40_Y
(define-fun |gcd#61| ((state |gcd_s|)) (_ BitVec 8) (ite (= ((_ extract 0 0) (|gcd#60| state)) #b1) (|gcd#57| state) (|gcd#3| state))) ; $procmux$106_Y
(define-fun |gcd#62| ((state |gcd_s|)) (_ BitVec 8) (ite (= ((_ extract 0 0) (|gcd#5| state)) #b1) (|gcd#18| state) (|gcd#61| state))) ; $0\x[7:0]
(define-fun |gcd#63| ((state |gcd_s|)) (_ BitVec 3) (ite (|gcd#56| state) (|gcd#28| state) (|gcd#1| state))) ; $procmux$111_Y
(define-fun |gcd#64| ((state |gcd_s|)) (_ BitVec 3) (ite (= ((_ extract 0 0) (|gcd#60| state)) #b1) (|gcd#63| state) (|gcd#1| state))) ; $procmux$113_Y
(define-fun |gcd#65| ((state |gcd_s|)) (_ BitVec 3) (ite (= ((_ extract 0 0) (|gcd#5| state)) #b1) (|gcd#1| state) (|gcd#64| state))) ; $procmux$115_Y
(define-fun |gcd#66| ((state |gcd_s|)) (_ BitVec 3) (ite (|gcd#8| state) #b000 (|gcd#65| state))) ; $0\lsb[2:0]
(define-fun |gcd#67| ((state |gcd_s|)) (_ BitVec 8) (ite (|gcd#54| state) (|gcd#0| state) (|gcd#41| state))) ; $procmux$92_Y
(define-fun |gcd#68| ((state |gcd_s|)) (_ BitVec 8) (ite (|gcd#56| state) (|gcd#0| state) (|gcd#67| state))) ; $procmux$94_Y
(define-fun |gcd#69| ((state |gcd_s|)) (_ BitVec 8) (ite (= ((_ extract 0 0) (|gcd#60| state)) #b1) (|gcd#68| state) (|gcd#0| state))) ; $procmux$96_Y
(define-fun |gcd#70| ((state |gcd_s|)) (_ BitVec 8) (ite (= ((_ extract 0 0) (|gcd#5| state)) #b1) (|gcd#17| state) (|gcd#69| state))) ; $0\y[7:0]
(define-fun |gcd_a| ((state |gcd_s|)) Bool (and
  (|gcd_a 0| state)
  (|gcd_a 1| state)
  (|ResetCounter_a| (|gcd_h resetCounter| state))
))
(define-fun |gcd_u| ((state |gcd_s|)) Bool (and
  (|gcd_u 0| state)
  (|ResetCounter_u| (|gcd_h resetCounter| state))
))
(define-fun |gcd_i| ((state |gcd_s|)) Bool (and
  (= (= ((_ extract 0 0) (|gcd#42| state)) #b1) false) ; $formal$gcd.sv:169$2_EN
  (= (= ((_ extract 0 0) (|gcd#43| state)) #b1) false) ; $formal$gcd.sv:165$1_EN
  (|ResetCounter_i| (|gcd_h resetCounter| state))
))
(define-fun |gcd_h| ((state |gcd_s|)) Bool (and
  (= (|gcd_is| state) (|ResetCounter_is| (|gcd_h resetCounter| state)))
  (= (|gcd#6| state) (|ResetCounter_n timeSinceReset| (|gcd_h resetCounter| state))) ; ResetCounter.timeSinceReset
  (= (|gcd#8| state) (|ResetCounter_n reset| (|gcd_h resetCounter| state))) ; ResetCounter.reset
  (= (|gcd#7| state) (|ResetCounter_n notChaos| (|gcd_h resetCounter| state))) ; ResetCounter.notChaos
  (= (|gcd#9| state) (|ResetCounter_n clk| (|gcd_h resetCounter| state))) ; ResetCounter.clk
  (|ResetCounter_h| (|gcd_h resetCounter| state))
))
(define-fun |gcd_t| ((state |gcd_s|) (next_state |gcd_s|)) Bool (and
  (= (|gcd#47| state) (|gcd#43| next_state)) ; $procdff$123 $formal$gcd.sv:165$1_EN
  (= (|gcd#50| state) (|gcd#42| next_state)) ; $procdff$125 $formal$gcd.sv:169$2_EN
  (= (|gcd#52| state) (|gcd#27| next_state)) ; $procdff$122 \_witness_.anyinit_procdff_122
  (= (|gcd#53| state) (|gcd#26| next_state)) ; $procdff$124 \_witness_.anyinit_procdff_124
  (= (ite (|gcd#8| state) #b1 #b0) (|gcd#5| next_state)) ; $procdff$129 \start
  (= (|gcd#62| state) (|gcd#3| next_state)) ; $procdff$127 \x
  (= (|gcd#66| state) (|gcd#1| next_state)) ; $procdff$126 \lsb
  (= (|gcd#70| state) (|gcd#0| next_state)) ; $procdff$128 \y
  (|ResetCounter_t| (|gcd_h resetCounter| state) (|gcd_h resetCounter| next_state))
)) ; end of module gcd
; yosys-smt2-topmod gcd
; end of yosys output
